1 151 170 0 0
2 15 0 210 0
3 193 120 0 1
4 143 0 200 1
5 93 220 220 0
6 43 230 230 1
7 227 0 190 0
8 106 0 200 0
9 52 220 0 0
10 15 220 220 1
11 257 240 0 1
12 93 0 0 1
13 20 0 110 0
14 124 0 0 1
15 15 220 0 0
16 134 0 0 0
17 42 170 190 1
18 151 0 200 1
19 242 0 340 0
20 27 240 0 1
21 79 160 150 0
22 13 0 0 0
23 106 0 0 0
24 20 0 0 0
25 62 0 0 0
26 243 210 0 0
27 124 0 150 0
28 154 0 0 0
29 93 0 190 0
30 227 0 0 0
31 12 0 190 0
32 158 170 0 0
33 41 0 0 0
34 83 210 0 1
35 218 230 0 1
36 9 0 0 0
37 161 0 220 1
38 216 230 230 1
39 157 230 0 1
40 124 310 0 0
41 16 140 0 1
42 72 60 50 1
43 68 210 0 1
44 222 0 210 0
45 68 210 200 0
46 134 0 140 0
47 12 0 0 1
48 95 0 160 1
49 251 0 0 1
50 41 110 0 0
51 237 240 230 0
52 193 0 0 0
53 80 0 0 0
54 19 0 140 0
55 273 230 0 1
56 98 170 0 1
57 124 310 160 1
58 80 240 0 1
59 217 130 280 0
60 98 0 0 0
61 170 80 50 0
62 112 200 0 1
63 124 160 0 1
64 216 0 0 0
65 217 0 0 1
66 54 0 200 1
67 165 0 0 0
68 98 0 120 1
69 216 0 220 1
70 197 0 0 1
71 13 130 130 1
72 183 210 0 1
73 79 0 270 1
74 124 160 160 0
75 273 0 230 1
76 43 0 310 0
77 95 190 0 1
78 134 250 240 0
79 72 120 100 1
80 42 0 0 0
81 222 210 0 0
82 216 230 0 0
83 27 0 0 1
84 27 0 210 0
85 194 200 0 0
86 9 0 200 0
87 62 200 220 1
88 43 0 0 1
89 112 0 230 0
90 62 0 220 1
91 158 0 190 0
92 68 0 0 0
93 13 130 0 1
94 79 270 0 1
95 15 0 0 0
96 213 0 160 0
97 273 0 0 0
98 234 0 0 1
99 42 120 0 1
100 234 300 0 0
101 104 0 170 1
102 217 0 140 1
103 112 0 0 1
104 203 0 220 1
105 242 0 170 1
106 158 190 190 0
107 193 0 240 0
108 171 0 240 0
109 62 160 0 0
110 104 0 0 0
111 183 0 0 0
112 151 200 200 0
113 54 0 0 0
114 157 0 140 0
115 43 0 170 0
116 80 240 240 1
117 19 0 0 0
118 221 0 180 1
119 143 0 0 1
120 259 230 0 1
121 259 0 240 0
122 193 120 130 0
123 112 220 230 1
124 171 130 0 0
125 217 160 140 0
126 54 240 0 0
127 20 180 0 0
128 237 0 180 1
129 19 200 0 0
130 221 0 0 0
131 83 0 0 0
132 143 240 0 0
133 170 0 0 0
134 154 220 220 0
135 158 0 0 0
136 20 180 170 0
137 98 170 160 1
138 175 0 140 0
139 237 240 0 1
140 68 0 110 0
141 213 0 0 0
142 217 0 280 0
143 257 240 240 1
144 132 210 0 0
145 154 220 0 0
146 16 0 230 0
147 134 250 0 0
148 41 0 190 0
149 257 0 170 0
150 221 140 0 0
151 16 0 0 0
152 95 0 0 0
153 218 0 190 1
154 234 0 140 0
155 13 0 120 1
156 79 0 120 1
157 243 0 0 0
158 132 0 0 1
159 72 0 50 0
160 151 0 0 0
161 79 160 0 0
162 134 0 210 1
163 154 0 190 0
164 194 0 0 0
165 175 0 0 0
166 72 120 0 0
167 93 220 0 1
168 193 120 60 0
169 27 240 240 1
170 52 0 0 1
171 170 80 0 0
172 218 0 0 1
173 259 0 0 0
174 217 110 0 0
175 95 190 170 0
176 203 0 0 0
177 203 210 220 1
178 157 0 0 0
179 68 100 110 1
180 165 0 160 0
181 242 0 0 0
182 52 0 150 0
183 257 0 0 1
184 170 150 50 0
185 193 0 130 0
186 104 200 0 0
187 79 0 0 1
188 42 0 190 0
189 222 210 200 0
190 237 0 0 0
191 203 140 0 0
192 222 0 0 0
193 79 160 290 0
194 171 0 0 1
195 217 110 140 1
196 43 230 0 1
197 170 150 0 1
198 193 120 250 1
199 251 200 0 0
200 234 200 0 0
201 273 230 230 1
202 213 240 0 0
203 161 0 0 1
204 72 0 0 1
205 80 0 230 1
206 41 180 190 1
207 79 300 150 0
208 197 0 210 0
209 19 200 180 0
210 79 300 290 0
210 283 9586 0.010014